problems/csplib-prob065/opd-models/noch/O0/minion/model_1-small_bibd_09_36_12-solution000001.eprime-solution
language ESSENCE' 1.0

letting lambda be 4
letting opd_ExplicitR2_Occurrence be
        [[false, false, false, false, false, false, false, false, false, false, false, false, false, false, false,
          false, false, false, false, false, false, false, false, false, true, true, true, true, true, true, true, true,
          true, true, true, true;
              int(1..36)],
         [false, false, false, false, false, false, false, false, false, false, false, false, false, false, false,
          false, true, true, true, true, true, true, true, true, false, false, false, false, false, false, false, false,
          true, true, true, true;
              int(1..36)],
         [false, false, false, false, false, false, false, false, false, false, false, false, true, true, true, true,
          false, false, false, false, true, true, true, true, false, false, false, false, true, true, true, true, false,
          false, false, false;
              int(1..36)],
         [false, false, false, false, false, false, false, false, false, false, false, false, true, true, true, true,
          true, true, true, true, false, false, false, false, true, true, true, true, false, false, false, false, false,
          false, false, false;
              int(1..36)],
         [false, false, false, false, false, false, false, false, true, true, true, true, false, false, false, false,
          false, false, false, false, true, true, true, true, true, true, true, true, false, false, false, false, false,
          false, false, false;
              int(1..36)],
         [false, false, false, false, false, false, false, false, true, true, true, true, false, false, false, false,
          true, true, true, true, false, false, false, false, false, false, false, false, true, true, true, true, false,
          false, false, false;
              int(1..36)],
         [false, false, false, false, false, false, false, false, true, true, true, true, true, true, true, true, false,
          false, false, false, false, false, false, false, false, false, false, false, false, false, false, false, true,
          true, true, true;
              int(1..36)],
         [false, false, false, false, true, true, true, true, false, false, false, false, false, false, false, false,
          false, false, true, true, false, false, true, true, false, false, true, true, false, false, true, true, false,
          false, false, false;
              int(1..36)],
         [false, false, false, false, true, true, true, true, false, false, false, false, false, false, false, false,
          true, true, false, false, true, true, false, false, true, true, false, false, true, true, false, false, false,
          false, false, false;
              int(1..36)];
             int(1..9)]
