problems/csplib-prob065/opd-models/noch/O0/minion/model_1-small_bibd_09_36_12-solution000001.solution
language Essence 1.3

letting lambda be 4
letting opd be
        {{5, 6, 7, 8, 17, 18, 21, 22, 25, 26, 29, 30}, {5, 6, 7, 8, 19, 20, 23, 24, 27, 28, 31, 32},
         {9, 10, 11, 12, 13, 14, 15, 16, 33, 34, 35, 36}, {9, 10, 11, 12, 17, 18, 19, 20, 29, 30, 31, 32},
         {9, 10, 11, 12, 21, 22, 23, 24, 25, 26, 27, 28}, {13, 14, 15, 16, 17, 18, 19, 20, 25, 26, 27, 28},
         {13, 14, 15, 16, 21, 22, 23, 24, 29, 30, 31, 32}, {17, 18, 19, 20, 21, 22, 23, 24, 33, 34, 35, 36},
         {25, 26, 27, 28, 29, 30, 31, 32, 33, 34, 35, 36}}
$ Visualisation for opd
$  5  6  7  8 17 18 21 22 25 26 29 30
$  5  6  7  8 19 20 23 24 27 28 31 32
$  9 10 11 12 13 14 15 16 33 34 35 36
$  9 10 11 12 17 18 19 20 29 30 31 32
$  9 10 11 12 21 22 23 24 25 26 27 28
$ 13 14 15 16 17 18 19 20 25 26 27 28
$ 13 14 15 16 21 22 23 24 29 30 31 32
$ 17 18 19 20 21 22 23 24 33 34 35 36
$ 25 26 27 28 29 30 31 32 33 34 35 36

